%oldchk=../GS_OLD/geometry.chk
%chk=geometry.chk
%nprocshared=4
%mem=5GB

# WB97XD/6-311G SCF=XQC FORCE nosym pop=full guess=read

MD Step 999

0 1
C  -0.33736642  -0.58296491  0.00218806 
H  0.22528414  -1.52427986  -0.00045290 
H  -1.41837408  -0.57702733  -0.00086077 
C  0.33170375  0.57511603  0.00079717 
H  -0.15414448  1.57046049  -0.00095322 
H  1.44716629  0.65683225  -0.00084255 








