%oldchk=../GS_OLD/geometry.chk
%chk=geometry.chk
%nprocshared=4
%mem=5GB

# WB97XD/6-311G SCF=XQC FORCE nosym pop=full guess=read

MD Step 1000

0 1
C  -0.33735799  -0.58412557  0.00685530 
H  0.22452264  -1.52274442  -0.02372259 
H  -1.42216174  -0.57688045  -0.02407879 
C  0.33326933  0.57718248  0.00468094 
H  -0.15609117  1.56804125  -0.02617684 
H  1.44025076  0.65212478  -0.02567801 








