%oldchk=../GS_OLD/geometry.chk
%chk=geometry.chk
%nprocshared=24
%mem=5GB

# AM1/STO-5G SCF=XQC FORCE nosym pop=full guess=read

MD Step 4999

0 1
C  4.84723934  -0.72253753  0.78317252 
C  3.88891399  0.26540782  0.66277115 
C  2.72561573  0.07493551  -0.10459543 
C  2.52608104  -1.20513979  -0.65109097 
C  3.46403160  -2.22985339  -0.56663488 
C  4.66902791  -2.00594108  0.15887986 
C  1.74025633  1.09067878  -0.30554062 
C  0.40457506  -0.59802458  -1.49777333 
C  0.60513442  0.77263432  -1.03028964 
C  -0.46276600  1.69029820  -1.32171844 
H  -0.32578485  2.71664995  -0.99456696 
C  -1.60814261  1.27292929  -1.92021811 
C  -1.83971841  -0.10408623  -2.26287952 
C  -0.75146452  -1.03419867  -2.10096101 
H  5.76422202  -0.55519892  1.40347226 
H  4.04476439  1.23204357  1.21600430 
H  3.31726550  -3.22796121  -1.02379196 
H  -2.41958810  2.00505082  -2.08032909 
H  -0.82057852  -2.09196053  -2.38859819 
N  -3.05611763  -0.51162011  -2.69655598 
N  5.64859385  -2.97796006  0.25866693 
P  -3.76643638  -0.40211299  1.38725789 
C  1.93884634  2.43233135  0.25991989 
C  0.96163066  2.96706556  1.13201444 
C  3.03580302  3.20436417  -0.11642101 
C  1.12243358  4.25215981  1.63011439 
H  0.07896688  2.38018559  1.42729686 
C  3.17459863  4.50171941  0.37665591 
H  3.79040134  2.83111630  -0.81661329 
C  2.21740621  5.02973269  1.25128109 
H  0.40126411  4.69577310  2.31483953 
H  4.03012152  5.12535907  0.09351030 
H  2.35142226  6.02901143  1.66209194 
F  -3.48984630  -1.61093600  0.30446143 
F  -2.20643031  0.08558015  1.20377993 
F  -4.16384375  0.62147145  0.13470770 
F  -3.95999872  0.83215145  2.41714053 
F  -3.29572230  -1.32375807  2.62133906 
F  -5.33049930  -0.82966092  1.56504733 
C  -4.14365337  0.44370425  -2.86827545 
H  -5.01904809  -0.05232249  -3.29189193 
H  -4.45079228  0.83939115  -1.86048627 
H  -3.80114233  1.24922512  -3.55621202 
C  -3.34569523  -1.90883178  -2.93479346 
H  -4.27390766  -2.01725487  -3.49791364 
H  -2.52321945  -2.37095596  -3.52096509 
H  -3.40223225  -2.38621714  -1.93843601 
C  5.46686205  -4.26580436  -0.35714573 
H  6.42546643  -4.84695526  -0.23058856 
H  4.61978635  -4.80320450  0.14701141 
H  5.17568395  -4.16821584  -1.43695312 
C  6.85083888  -2.73591528  1.03330748 
H  6.61102115  -2.58348005  2.10023619 
H  7.54169652  -3.57353813  1.00127489 
H  7.40075735  -1.86302852  0.65330144 
O  1.37716350  -1.56188082  -1.33362506 








