%oldchk=../GS_OLD/geometry.chk
%chk=geometry.chk
%nprocshared=4
%mem=5GB

# WB97XD/6-311G SCF=XQC FORCE nosym pop=full guess=read

MD Step 999

0 1
C  -0.33666940  -0.58286985  0.00345882 
H  0.22464647  -1.51820355  -0.00238527 
H  -1.41928509  -0.57858183  -0.00316566 
C  0.33226628  0.57547630  0.00167117 
H  -0.15441206  1.57512275  -0.00582883 
H  1.44601960  0.65426374  -0.00523215 








