%chk=geometry.chk
%nprocshared=1
%mem=5GB

# WB97XD/6-311+G* nosymm iop(2/12=3,3/33=1) guess=only pop=full

MD Step 571

0 1
C  -0.14392896  -0.65416986  0.10121855 
H  0.50147484  -1.60097879  -0.52441631 
H  -1.10102796  -1.28766500  0.29263595 
C  0.08076753  0.86417494  -0.12793921 
H  0.97427577  0.69717071  -0.60066229 
H  0.37863576  -0.31336401  1.15115358 
C  -0.14366031  -0.65356283  0.10338814 
H  0.47763801  -1.60330036  -0.51561816 
H  -1.07006809  -1.30484788  0.29285911 
C  0.08728505  0.86410079  -0.12461114 
H  0.97159988  0.73680191  -0.60247964 
H  0.36486140  -0.28561552  1.14012049 








