%chk=geometry.chk
%nprocshared=1
%mem=5GB

# WB97XD/6-311+G* nosymm iop(2/12=3,3/33=1) guess=only pop=full

MD Step 1000

0 1
C  0.97507070  -0.17917369  0.10911703 
H  -8.82297950  -6.35756569  -1.34039445 
H  -7.95030014  -6.15608200  -1.75617135 
C  0.32959808  1.08994799  0.09344197 
H  0.02180732  1.80808848  -0.76837259 
H  1.19002569  -0.15770796  1.44891437 
C  0.98397243  -0.17551555  0.11279196 
H  -8.85548803  -6.38748218  -1.35078773 
H  -7.96296321  -6.15430436  -1.74621927 
C  0.32766879  1.09555253  0.09156225 
H  0.05148747  1.79690361  -0.73501861 
H  1.19832796  -0.17553435  1.46221598 








