%oldchk=../GS_OLD/geometry.chk
%chk=geometry.chk
%nprocshared=4
%mem=5GB

# WB97XD/6-311G SCF=XQC FORCE nosym pop=full guess=read

MD Step 999

0 1
C  -0.33724501  -0.58230250  0.00382206 
H  0.22613630  -1.52643118  -0.00913953 
H  -1.42041664  -0.58312396  -0.00978597 
C  0.33187684  0.57601057  0.00240342 
H  -0.15274530  1.56793228  -0.01059313 
H  1.44556291  0.65116695  -0.01009697 








