%oldchk=../GS_OLD/geometry.chk
%chk=geometry.chk
%nprocshared=1
%mem=5GB

# BLYP/STO-3G SCF=XQC FORCE nosym pop=full

MD Step 55

0 1
H  0.01202313  0.01202090  0.01333350 
H  0.01202866  0.01203035  3.01073278 








