%oldchk=../GS_OLD/geometry.chk
%chk=geometry.chk
%nprocshared=4
%mem=5GB

# WB97XD/6-311G SCF=XQC FORCE nosym pop=full guess=read

MD Step 999

0 1
C  -0.33717820  -0.58230552  0.00714411 
H  0.22746922  -1.52426551  -0.02423471 
H  -1.42093914  -0.58445751  -0.02675388 
C  0.33188918  0.57619729  0.00522030 
H  -0.15065407  1.56983748  -0.03038540 
H  1.44553544  0.65003847  -0.02757590 








