%oldchk=../GS_OLD/geometry.chk
%chk=geometry.chk
%nprocshared=4
%mem=5GB

# WB97XD/6-311G SCF=XQC FORCE nosym pop=full guess=read

MD Step 1000

0 1
C  -0.33607121  -0.58078672  0.00673357 
H  0.21496638  -1.53344835  -0.02459824 
H  -1.42164995  -0.59392183  -0.02595924 
C  0.33302838  0.57766959  0.00529269 
H  -0.16296537  1.56196303  -0.02808170 
H  1.44396224  0.64059736  -0.02661719 








