%oldchk=../GS_OLD/geometry.chk
%chk=geometry.chk
%nprocshared=2
%mem=5GB

# WB97XD/6-311G SCF=XQC FORCE nosym pop=full guess=read

MD Step 1000

0 1
C  -0.33733530  -0.58362529  0.00445093 
H  0.22462251  -1.52110568  -0.01071111 
H  -1.41986239  -0.57991876  -0.01162854 
C  0.33284099  0.57679409  0.00310239 
H  -0.15432703  1.57117300  -0.01364435 
H  1.44439540  0.65253101  -0.01274085 








