%oldchk=../GS_OLD/geometry.chk
%chk=geometry.chk
%nprocshared=24
%mem=5GB

# WB97XD/6-311G SCF=XQC FORCE nosym pop=full guess=read

MD Step 999

0 1
C  -0.33186984  -0.57440215  0.00283545 
H  0.20343805  -1.53632401  0.00094731 
H  -1.42058429  -0.60124954  -0.00041767 
C  0.33076638  0.57313124  0.00136615 
H  -0.15986904  1.55485548  -0.00280413 
H  1.43628332  0.64397880  -0.00168574 








