%oldchk=../GS_OLD/geometry.chk
%chk=geometry.chk
%nprocshared=1
%mem=5GB

# B3LYP/6-31G* SCF=XQC FORCE nosym pop=full

MD Step 122

0 1
Li  1.02091832  1.02057256  0.81850136 
F  0.61266711  0.61275768  4.68667607 








