%oldchk=../GS_OLD/geometry.chk
%chk=geometry.chk
%nprocshared=4
%mem=5GB

# WB97XD/6-311G SCF=XQC FORCE nosym pop=full guess=read

MD Step 999

0 1
C  -0.33596327  -0.58094733  0.00629446 
H  0.21769388  -1.52985080  -0.02214076 
H  -1.42265354  -0.59140813  -0.02333304 
C  0.33251906  0.57692069  0.00481048 
H  -0.15774500  1.56298776  -0.02508627 
H  1.44164985  0.64415534  -0.02385658 








