%oldchk=../GS_OLD/geometry.chk
%chk=geometry.chk
%nprocshared=4
%mem=5GB

# WB97XD/6-311G SCF=XQC FORCE nosym pop=full guess=read

MD Step 999

0 1
C  -0.33630340  -0.58238677  0.01016771 
H  0.22016433  -1.52267889  -0.03752205 
H  -1.41944140  -0.58096801  -0.03887500 
C  0.33266282  0.57591169  0.00715608 
H  -0.15634551  1.57267587  -0.04239960 
H  1.44598679  0.65510999  -0.04063565 








