%oldchk=../GS_OLD/geometry.chk
%chk=geometry.chk
%nprocshared=4
%mem=5GB

# WB97XD/6-311G SCF=XQC FORCE nosym pop=full guess=read

MD Step 1000

0 1
C  -0.33593199  -0.58214240  0.00697221 
H  0.21462843  -1.52932062  -0.02444170 
H  -1.42292247  -0.58417725  -0.02483114 
C  0.33399146  0.57778345  0.00576727 
H  -0.16297113  1.56219680  -0.02810992 
H  1.44110631  0.64996829  -0.02769125 








