%oldchk=../GS_OLD/geometry.chk
%chk=geometry.chk
%nprocshared=4
%mem=5GB

# WB97XD/6-311G SCF=XQC FORCE nosym pop=full guess=read

MD Step 999

0 1
C  -0.33499685  -0.57987565  0.00945427 
H  0.20879429  -1.53302949  -0.03788277 
H  -1.42059855  -0.59742515  -0.03961851 
C  0.33353774  0.57807599  0.00808781 
H  -0.16744474  1.56225312  -0.04289749 
H  1.44449748  0.63751166  -0.04076169 








