%oldchk=../GS_OLD/geometry.chk
%chk=geometry.chk
%nprocshared=4
%mem=5GB

# WB97XD/6-311G SCF=XQC FORCE nosym pop=full guess=read

MD Step 1000

0 1
C  -0.33613465  -0.58185675  0.00544217 
H  0.21474661  -1.52881602  -0.01706219 
H  -1.41977970  -0.58612159  -0.01714789 
C  0.33356349  0.57750809  0.00434589 
H  -0.16338335  1.56399172  -0.01879748 
H  1.44391729  0.64763235  -0.01875788 








