%oldchk=../GS_OLD/geometry.chk
%chk=geometry.chk
%nprocshared=4
%mem=5GB

# WB97XD/6-311G SCF=XQC FORCE nosym pop=full guess=read

MD Step 999

0 1
C  -0.33558456  -0.58073007  0.00511438 
H  0.21148611  -1.52861819  -0.01641043 
H  -1.42023986  -0.59573181  -0.01714434 
C  0.33297737  0.57712469  0.00427149 
H  -0.16582096  1.56888779  -0.01906031 
H  1.44668038  0.63945888  -0.01818221 








