%oldchk=../GS_OLD/geometry.chk
%chk=geometry.chk
%nprocshared=4
%mem=5GB

# WB97XD/6-311G SCF=XQC FORCE nosym pop=full guess=read

MD Step 1000

0 1
C  -0.33714731  -0.58300647  0.00426565 
H  0.23257237  -1.52633899  -0.00671081 
H  -1.42419843  -0.57555210  -0.00734340 
C  0.33303913  0.57738620  0.00285247 
H  -0.14575289  1.56415568  -0.00973884 
H  1.43824375  0.65662141  -0.00912068 








