%oldchk=../GS_OLD/geometry.chk
%chk=geometry.chk
%nprocshared=4
%mem=5GB

# WB97XD/6-311G SCF=XQC FORCE nosym pop=full guess=read

MD Step 999

0 1
C  -0.33534691  -0.57969704  0.00634667 
H  0.21238507  -1.53018180  -0.02202737 
H  -1.41996673  -0.59997381  -0.02373987 
C  0.33261950  0.57721183  0.00541161 
H  -0.16394576  1.56689028  -0.02638938 
H  1.44745704  0.63631604  -0.02451608 








