%oldchk=../GS_OLD/geometry.chk
%chk=geometry.chk
%nprocshared=4
%mem=5GB

# WB97XD/6-311G SCF=XQC FORCE nosym pop=full guess=read

MD Step 1000

0 1
C  -0.33658054  -0.58233828  0.01050300 
H  0.21792525  -1.52279098  -0.03871673 
H  -1.41611467  -0.58448427  -0.04091093 
C  0.33288941  0.57700124  0.00703724 
H  -0.15921791  1.56663277  -0.04399649 
H  1.44522875  0.64808976  -0.04152497 








