%oldchk=../GS_OLD/geometry.chk
%chk=geometry.chk
%nprocshared=4
%mem=5GB

# WB97XD/6-311G SCF=XQC FORCE nosym pop=full guess=read

MD Step 999

0 1
C  -0.33670912  -0.58222400  0.00629453 
H  0.22665913  -1.52295544  -0.01779386 
H  -1.41869804  -0.57776053  -0.01848823 
C  0.33178425  0.57531951  0.00402415 
H  -0.15006146  1.56990903  -0.02162660 
H  1.44479957  0.65709259  -0.02102122 








