%oldchk=../GS_OLD/geometry.chk
%chk=geometry.chk
%nprocshared=4
%mem=5GB

# WB97XD/6-311G SCF=XQC FORCE nosym pop=full guess=read

MD Step 1000

0 1
C  -0.33636408  -0.58203076  0.00491675 
H  0.21854569  -1.53270133  -0.01499580 
H  -1.42375928  -0.58330204  -0.01518401 
C  0.33343930  0.57756983  0.00364044 
H  -0.16180318  1.55972221  -0.01644458 
H  1.44083976  0.64843342  -0.01635517 








