%oldchk=../GS_OLD/geometry.chk
%chk=geometry.chk
%nprocshared=4
%mem=5GB

# WB97XD/6-311G SCF=XQC FORCE nosym pop=full guess=read

MD Step 999

0 1
C  -0.33625001  -0.58154472  0.00663443 
H  0.21497491  -1.52594694  -0.02418628 
H  -1.41819714  -0.59006506  -0.02523933 
C  0.33218243  0.57624629  0.00483226 
H  -0.15999988  1.56738229  -0.02719670 
H  1.44582818  0.64590673  -0.02586631 








