%oldchk=../GS_OLD/geometry.chk
%chk=geometry.chk
%nprocshared=4
%mem=5GB

# WB97XD/6-311G SCF=XQC FORCE nosym pop=full guess=read

MD Step 1000

0 1
C  -0.33558527  -0.58023444  0.00673356 
H  0.21199829  -1.53136800  -0.02438651 
H  -1.42112730  -0.60019532  -0.02614834 
C  0.33332534  0.57841369  0.00581086 
H  -0.16585748  1.56331783  -0.02862875 
H  1.44552215  0.63355502  -0.02670012 








