%oldchk=../GS_OLD/geometry.chk
%chk=geometry.chk
%nprocshared=24
%mem=30GB

# BLYP/6-31G* SCF=XQC FORCE nosym pop=full guess=read

MD Step 1000

0 1
C  11.38708872  6.44236432  8.11551697 
C  10.45923653  7.44435510  7.90602349 
C  9.30398483  7.21296632  7.10799114 
C  9.17414853  5.88075356  6.58496036 
C  10.06979842  4.87232793  6.79264000 
C  11.22802079  5.11828216  7.58519620 
C  8.28831592  8.20720223  6.79067063 
C  7.09554733  6.46105028  5.50454636 
C  7.20895923  7.81030275  5.98963305 
C  6.14420058  8.69827741  5.60673634 
H  6.15476474  9.75735103  5.90688809 
C  5.07622716  8.24563949  4.85763258 
C  4.97421854  6.86462539  4.40581055 
C  6.04661632  5.97326251  4.72728537 
H  12.23596693  6.65461790  8.68784484 
H  10.60835766  8.41575962  8.35723161 
H  9.86673614  3.90054623  6.43114061 
H  4.27790511  8.96709419  4.60777855 
H  6.06121978  4.88576013  4.53001354 
N  3.89547055  6.43451714  3.68382546 
N  12.15009340  4.16038790  7.87733637 
P  2.30054305  4.94470203  6.83298818 
C  8.36185428  9.59314281  7.37654079 
C  7.37583892  10.01900221  8.31686955 
C  9.39386108  10.48554171  6.98247629 
C  7.49159199  11.29909233  8.91878909 
H  6.54772359  9.31397763  8.56051363 
C  9.49761538  11.75866427  7.57955888 
H  10.07722025  10.14195010  6.20376037 
C  8.52045716  12.18087575  8.51590994 
H  6.73032543  11.56859336  9.61797538 
H  10.30190908  12.40760069  7.25014233 
H  8.56858237  13.16104220  8.93032461 
F  3.77161486  4.45010790  6.24691024 
F  2.92933590  5.01280913  8.32698892 
F  2.77079280  6.51134758  6.58394433 
F  0.85306793  5.47280668  7.35337232 
F  1.86349598  3.39075783  7.04081511 
F  1.71409172  4.89765897  5.29381510 
C  2.63214344  7.21076680  3.70574049 
H  1.82498313  6.48562692  3.43071985 
H  2.42902683  7.58338579  4.71521942 
H  2.68671472  8.00401040  2.93900365 
C  3.86482698  5.05924231  3.17858947 
H  3.11168402  4.98265259  2.43783352 
H  4.78582783  4.75730071  2.65953118 
H  3.69127609  4.29249681  3.95963392 
C  11.93829100  2.80813006  7.36905353 
H  12.81154484  2.18314102  7.66743754 
H  11.03671033  2.33708794  7.82104535 
H  11.84642212  2.75442485  6.26739194 
C  13.26740143  4.44358722  8.80516725 
H  12.85650891  4.84504590  9.75303466 
H  13.74898663  3.48309371  8.93623585 
H  13.94069905  5.20392997  8.35839338 
O  8.08129403  5.54573936  5.79883378 








