%oldchk=../GS_OLD/geometry.chk
%chk=geometry.chk
%nprocshared=4
%mem=5GB

# WB97XD/6-311G SCF=XQC FORCE nosym pop=full guess=read

MD Step 999

0 1
C  -0.33607158  -0.58133850  0.00784124 
H  0.22255950  -1.53153172  -0.02707988 
H  -1.42277024  -0.58191215  -0.02763992 
C  0.33302609  0.57693472  0.00619194 
H  -0.15616970  1.56379841  -0.03145215 
H  1.44302242  0.65247560  -0.03070628 








