%oldchk=../GS_OLD/geometry.chk
%chk=geometry.chk
%nprocshared=4
%mem=5GB

# WB97XD/6-311G SCF=XQC FORCE nosym pop=full guess=read

MD Step 999

0 1
C  -0.33629645  -0.58234697  0.00498602 
H  0.22238680  -1.52295731  -0.01275664 
H  -1.42573792  -0.58660523  -0.01390919 
C  0.33300337  0.57683846  0.00317413 
H  -0.15845713  1.57156442  -0.01534996 
H  1.44199643  0.64459941  -0.01427703 








