%oldchk=../GS_OLD/geometry.chk
%chk=geometry.chk
%nprocshared=4
%mem=5GB

# WB97XD/6-311G SCF=XQC FORCE nosym pop=full guess=read

MD Step 999

0 1
C  -0.33564182  -0.58097943  0.00794017 
H  0.21446551  -1.52919674  -0.02732326 
H  -1.41933977  -0.58651891  -0.02753842 
C  0.33336961  0.57677825  0.00590184 
H  -0.16350883  1.56686909  -0.02988458 
H  1.44617843  0.64963456  -0.02946372 








