%oldchk=../GS_OLD/geometry.chk
%chk=geometry.chk
%nprocshared=24
%mem=5GB

# BLYP/6-31G* SCF=XQC FORCE nosym pop=full guess=read

MD Step 166

0 1
C  5.13344281  -0.60899179  0.50340535 
C  4.25431604  0.46886032  0.30208114 
C  2.95561159  0.26161205  -0.25216282 
C  2.59650072  -1.10664534  -0.54844162 
C  3.44389582  -2.17546165  -0.36340121 
C  4.75191038  -1.95908993  0.15086362 
C  1.97113886  1.28761133  -0.45239388 
C  0.36619791  -0.42175523  -1.21814726 
C  0.66870368  0.96007798  -0.93413387 
C  -0.38440835  1.92548711  -1.17019511 
H  -0.24171249  2.96367126  -0.99289029 
C  -1.62287633  1.50925489  -1.61461614 
C  -1.91731739  0.12617827  -1.88531239 
C  -0.86907668  -0.84335660  -1.68016540 
H  6.08853165  -0.40111812  0.94270537 
H  4.55036154  1.45214402  0.58527192 
H  3.08447796  -3.17548915  -0.59822531 
H  -2.41871025  2.23713112  -1.74974290 
H  -1.05659166  -1.89069070  -1.80609812 
N  -3.12065468  -0.28122304  -2.33470974 
N  5.60221661  -3.02177659  0.33558389 
P  -4.10092813  -0.77407547  1.39729949 
C  2.31315314  2.72574475  -0.12839379 
C  1.65285432  3.36012828  0.93476982 
C  3.34913695  3.39656438  -0.80206491 
C  1.99821140  4.66010011  1.28906876 
H  0.84170320  2.83890901  1.47792563 
C  3.67888647  4.70486654  -0.44831289 
H  3.86972347  2.92319399  -1.65515600 
C  3.03118379  5.32141042  0.62200151 
H  1.47957263  5.17383322  2.08011124 
H  4.43098547  5.24734554  -0.99739035 
H  3.29080204  6.31652471  0.88803088 
F  -2.88195517  -1.62450177  0.57811271 
F  -3.04748443  -0.50569551  2.65262792 
F  -3.54312658  0.64930905  0.64763395 
F  -5.28483777  0.09046068  2.15187732 
F  -4.62695538  -2.17383615  2.07893717 
F  -5.09637261  -1.01786632  0.06187093 
C  -4.25256836  0.67893117  -2.39597068 
H  -5.17005930  0.13432770  -2.78427997 
H  -4.51206910  1.05567467  -1.41507268 
H  -4.05666533  1.48040168  -3.10191319 
C  -3.40526754  -1.71921164  -2.48506660 
H  -4.39764408  -1.81682140  -3.01260111 
H  -2.66064238  -2.18009796  -3.11907489 
H  -3.48741762  -2.19838355  -1.50737863 
C  5.13372013  -4.38737786  0.07830006 
H  5.98856719  -5.04054971  0.30879164 
H  4.28247174  -4.65019633  0.74215500 
H  4.84561938  -4.49110714  -0.96860498 
C  6.91053134  -2.79342652  0.98960718 
H  6.82878885  -2.42678061  1.99778415 
H  7.49681214  -3.71811266  1.04551578 
H  7.51964907  -2.08107079  0.44955099 
O  1.32675431  -1.42236700  -1.04236730 








