%oldchk=../GS_OLD/geometry.chk
%chk=geometry.chk
%nprocshared=24
%mem=5GB

# AM1/STO-5G SCF=XQC FORCE nosym pop=full guess=read

MD Step 5000

0 1
C  4.84378047  -0.72312975  0.78382671 
C  3.88765988  0.26449380  0.66230118 
C  2.72636278  0.07448459  -0.10527056 
C  2.52501304  -1.20670603  -0.65286861 
C  3.46326757  -2.23061106  -0.56640242 
C  4.66880775  -2.00437366  0.15892033 
C  1.73854839  1.09007200  -0.30849753 
C  0.40351532  -0.59702676  -1.49926825 
C  0.60314650  0.76979904  -1.02963317 
C  -0.46221839  1.68996112  -1.32205569 
H  -0.32295963  2.71658058  -0.99795426 
C  -1.61066471  1.27176445  -1.92195471 
C  -1.84000019  -0.10189430  -2.26208501 
C  -0.74801330  -1.03402004  -2.10090732 
H  5.76419499  -0.55962165  1.40713142 
H  4.04047978  1.23327170  1.21449633 
H  3.30426381  -3.21344154  -1.01513666 
H  -2.41819795  1.99505717  -2.07905586 
H  -0.81876736  -2.10099604  -2.38508281 
N  -3.05516573  -0.51088110  -2.69981138 
N  5.64909542  -2.98061387  0.25963509 
P  -3.76456859  -0.40161451  1.38793483 
C  1.93897545  2.43199743  0.25909780 
C  0.96136349  2.96744206  1.13168203 
C  3.03715555  3.20590842  -0.11640791 
C  1.12081852  4.25201910  1.62917654 
H  0.08513748  2.37368268  1.42245125 
C  3.17494776  4.50264213  0.37725688 
H  3.79227318  2.82105473  -0.82074444 
C  2.21650086  5.03095359  1.25386341 
H  0.39257632  4.68903921  2.32106108 
H  4.03018486  5.12016626  0.09660794 
H  2.35361756  6.02709763  1.66912749 
F  -3.49247901  -1.60934365  0.30760926 
F  -2.20745432  0.08355488  1.20207293 
F  -4.16337027  0.61788257  0.13683724 
F  -3.95663385  0.83164584  2.41578617 
F  -3.29625538  -1.32375196  2.61955548 
F  -5.32686975  -0.82719882  1.56562871 
C  -4.14438071  0.44377560  -2.86927059 
H  -5.02281473  -0.04228402  -3.28441893 
H  -4.45139783  0.84311709  -1.86663958 
H  -3.79664542  1.25385440  -3.55157910 
C  -3.34860557  -1.90914399  -2.93304065 
H  -4.26941993  -2.01716130  -3.50871083 
H  -2.52850894  -2.35367847  -3.52638886 
H  -3.39834819  -2.37922218  -1.93060569 
C  5.46948708  -4.26149089  -0.35733122 
H  6.43573753  -4.85953786  -0.23306544 
H  4.61597604  -4.80144929  0.15299326 
H  5.17278464  -4.15870742  -1.43996046 
C  6.85137755  -2.73519064  1.03627486 
H  6.60510312  -2.58377325  2.09408541 
H  7.53545137  -3.57567108  1.00374739 
H  7.37724723  -1.85942497  0.65689686 
O  1.37891801  -1.56224043  -1.33362220 








