%oldchk=../GS_OLD/geometry.chk
%chk=geometry.chk
%nprocshared=4
%mem=5GB

# WB97XD/6-311G SCF=XQC FORCE nosym pop=full guess=read

MD Step 1000

0 1
C  -0.33522371  -0.58049365  0.00416625 
H  0.20803463  -1.53823257  -0.01155813 
H  -1.42650345  -0.59927968  -0.01259283 
C  0.33423579  0.57917879  0.00347091 
H  -0.17207446  1.56061799  -0.01354511 
H  1.44313266  0.63336549  -0.01248994 








