%oldchk=../GS_OLD/geometry.chk
%chk=geometry.chk
%nprocshared=4
%mem=5GB

# WB97XD/6-311G SCF=XQC FORCE nosym pop=full guess=read

MD Step 1000

0 1
C  -0.33662681  -0.58295037  0.00535605 
H  0.22292782  -1.52379578  -0.01504342 
H  -1.42639905  -0.58581634  -0.01620894 
C  0.33357342  0.57786118  0.00356215 
H  -0.15941741  1.56842211  -0.01754862 
H  1.44029611  0.64287017  -0.01644913 








