%oldchk=../GS_OLD/geometry.chk
%chk=geometry.chk
%nprocshared=4
%mem=5GB

# WB97XD/6-311G SCF=XQC FORCE nosym pop=full guess=read

MD Step 1000

0 1
C  -0.33659771  -0.58297916  0.01046210 
H  0.22025334  -1.52371892  -0.03939899 
H  -1.42030960  -0.58053358  -0.04077447 
C  0.33329580  0.57703755  0.00745428 
H  -0.15766641  1.56909330  -0.04405850 
H  1.44404416  0.65293413  -0.04226866 








