%oldchk=../GS_OLD/geometry.chk
%chk=geometry.chk
%nprocshared=4
%mem=5GB

# WB97XD/6-311G SCF=XQC FORCE nosym pop=full guess=read

MD Step 1000

0 1
C  -0.33592480  -0.58151246  0.00824146 
H  0.21499367  -1.53055207  -0.02919803 
H  -1.42061063  -0.58609241  -0.02941805 
C  0.33395880  0.57786963  0.00618384 
H  -0.16429584  1.56309366  -0.03151472 
H  1.44401746  0.64764359  -0.03107151 








