%oldchk=../GS_OLD/geometry.chk
%chk=geometry.chk
%nprocshared=4
%mem=5GB

# WB97XD/6-311G SCF=XQC FORCE nosym pop=full guess=read

MD Step 1000

0 1
C  -0.33725817  -0.58352033  0.00989033 
H  0.22649364  -1.52194990  -0.03533363 
H  -1.42005627  -0.57893360  -0.03692897 
C  0.33345823  0.57767093  0.00745536 
H  -0.15215554  1.56928465  -0.04196774 
H  1.44346300  0.65376105  -0.03998824 








