%oldchk=../GS_OLD/geometry.chk
%chk=geometry.chk
%nprocshared=4
%mem=5GB

# WB97XD/6-311G SCF=XQC FORCE nosym pop=full guess=read

MD Step 999

0 1
C  -0.33599508  -0.58055143  0.00895180 
H  0.22375126  -1.53028705  -0.03064279 
H  -1.42193889  -0.58779232  -0.03298402 
C  0.33231483  0.57667858  0.00646381 
H  -0.15470642  1.56530368  -0.03751389 
H  1.44404117  0.64621409  -0.03525698 








