%oldchk=../GS_OLD/geometry.chk
%chk=geometry.chk
%nprocshared=24
%mem=5GB

# WB97XD/6-311G SCF=XQC FORCE nosym pop=full guess=read

MD Step 335

0 1
C  -0.35686866  -0.61613765  0.00403162 
H  0.31585288  -1.33147731  -0.00112365 
H  -1.32370608  -0.42570331  -0.02642327 
C  0.31875296  0.55789549  -0.00151880 
H  -0.09924874  1.69933492  0.02780703 
H  1.56898215  0.75644209  -0.02527862 








