%oldchk=../GS_OLD/geometry.chk
%chk=geometry.chk
%nprocshared=4
%mem=5GB

# WB97XD/6-311G SCF=XQC FORCE nosym pop=full guess=read

MD Step 999

0 1
C  -0.33591653  -0.58097019  0.00667666 
H  0.21401415  -1.52956827  -0.02349126 
H  -1.42080027  -0.59238440  -0.02484647 
C  0.33275941  0.57684335  0.00495027 
H  -0.16352009  1.56584196  -0.02715771 
H  1.44520377  0.64258128  -0.02575917 








