%oldchk=../GS_NEW/geometry.chk
%chk=geometry.chk
%nprocshared=1
%mem=5GB

# BLYP/STO-3G SCF=XQC TD=(singlets,nstates=2,root=1) FORCE nosym pop=full guess=read

MD Step 708

0 1
C  4.26557159  5.30855187  5.25616141 
C  5.73827103  5.33098210  5.30056697 
C  6.33678112  6.65008673  5.34351191 
C  5.70164652  7.90266661  5.34254897 
C  4.23709439  7.80507717  5.26916300 
C  3.51813329  6.57228795  5.33194547 
H  3.67836106  4.38455709  5.36331170 
H  6.34079147  4.63163601  4.75738188 
H  6.26815780  8.82936104  5.08617641 
H  3.63717699  8.68807966  4.95625635 
N  7.85679962  6.53356186  5.15679206 
H  8.34468360  6.03472640  6.01024799 
H  8.30343254  6.00704082  4.29000978 
N  2.03180505  6.67045521  5.06413700 
H  1.46741312  5.76260558  4.83836360 
H  1.56142732  7.06356363  6.05564772 








