%oldchk=../GS_OLD/geometry.chk
%chk=geometry.chk
%nprocshared=1
%mem=5GB

# BLYP/STO-3G SCF=XQC FORCE nosym pop=full

MD Step 56

0 1
H  0.01224173  0.01223946  0.01360005 
H  0.01224736  0.01224908  3.01090379 








