%oldchk=../GS_OLD/geometry.chk
%chk=geometry.chk
%nprocshared=4
%mem=5GB

# WB97XD/6-311G SCF=XQC FORCE nosym pop=full guess=read

MD Step 999

0 1
C  -0.33671531  -0.58189600  0.00774557 
H  0.22822569  -1.52731099  -0.02794615 
H  -1.42495728  -0.58420317  -0.02945074 
C  0.33227300  0.57652085  0.00557757 
H  -0.15023265  1.56634436  -0.03198595 
H  1.43915907  0.64848731  -0.03011653 








