%oldchk=../GS_OLD/geometry.chk
%chk=geometry.chk
%nprocshared=1
%mem=5GB

# BLYP/STO-3G SCF=XQC FORCE nosym pop=full

MD Step 33

0 1
Li  0.03590714  0.03590276  0.07913559 
H  0.23024504  0.23030578  2.93231207 








